(set-logic ALL)
(declare-const BAV1 Bool)
(declare-const GEN2 Int)
(declare-const GEN1 Int)
(declare-sort S 0)
(declare-fun a () Int)
(declare-fun b () Int)
(declare-fun A () (Array S S))
(declare-fun f ((_ BitVec 4)) S)
(assert (distinct (select A (f (_ bv0 4))) (select A (f (_ bv1 4)))))
(assert (= BAV1 (distinct (select A (f (_ bv0 4))) (select A (f (_ bv1 4))))))
(check-sat)
(get-model)